
Gurobi 12.0.2 (win64) logging started Mon Nov  3 18:29:42 2025

Set parameter LogFile to value "resultados DATA_1_n20m10b2d1\instancia_2_log.txt"
Set parameter TimeLimit to value 1800
Gurobi Optimizer version 12.0.2 build v12.0.2rc0 (win64 - Windows 10.0 (19045.2))

CPU model: Intel(R) Core(TM) i5-6300U CPU @ 2.40GHz, instruction set [SSE2|AVX|AVX2]
Thread count: 2 physical cores, 4 logical processors, using up to 4 threads

Non-default parameters:
TimeLimit  1800

Optimize a model with 4618 rows, 21330 columns and 3202569 nonzeros
Model fingerprint: 0x09b7a593
Variable types: 0 continuous, 21330 integer (21330 binary)
Coefficient statistics:
  Matrix range     [1e+00, 1e+00]
  Objective range  [4e-03, 4e-02]
  Bounds range     [1e+00, 1e+00]
  RHS range        [1e+00, 8e+01]
Found heuristic solution: objective 0.7360000
Presolve removed 12 rows and 6083 columns (presolve time = 5s)...
Presolve removed 12 rows and 6083 columns (presolve time = 10s)...
Presolve removed 12 rows and 6083 columns (presolve time = 15s)...
Presolve removed 12 rows and 6083 columns (presolve time = 20s)...
Presolve removed 12 rows and 6083 columns (presolve time = 25s)...
Presolve removed 12 rows and 6083 columns
Presolve time: 26.84s
Presolved: 4606 rows, 15247 columns, 2243467 nonzeros
Found heuristic solution: objective 0.5515000
Variable types: 0 continuous, 15247 integer (15247 binary)
Deterministic concurrent LP optimizer: primal and dual simplex
Showing primal log only...


Root simplex log...

Iteration    Objective       Primal Inf.    Dual Inf.      Time
       0    8.3050000e-01   0.000000e+00   1.877233e+02     28s
    2120    9.3172367e-01   0.000000e+00   7.107503e+04     30s
    4640    9.9647227e-01   0.000000e+00   5.185900e+02     35s
    6450    9.9911699e-01   0.000000e+00   1.768339e+03     40s
    8140    9.9978992e-01   0.000000e+00   1.619349e+02     45s
    9700    1.0000337e+00   0.000000e+00   2.130018e+02     50s
Concurrent spin time: 0.00s

Solved with dual simplex

Root simplex log...

Iteration    Objective       Primal Inf.    Dual Inf.      Time
   11834    1.0000000e+00   0.000000e+00   0.000000e+00     53s

Use crossover to convert LP symmetric solution to basic solution...

Root crossover log...


Restart crossover...

   11834 variables added to crossover basis                       64s

     497 DPushes remaining with DInf 0.0000000e+00                84s
     418 DPushes remaining with DInf 0.0000000e+00                85s
     123 DPushes remaining with DInf 0.0000000e+00                91s
       0 DPushes remaining with DInf 0.0000000e+00                94s

     592 PPushes remaining with PInf 2.8950290e-04                94s
     523 PPushes remaining with PInf 5.1598636e-03                95s
     250 PPushes remaining with PInf 1.2589838e-02               100s
       0 PPushes remaining with PInf 9.1292299e-03               104s

  Push phase complete: Pinf 9.1292299e-03, Dinf 7.6180666e-10    104s


Root simplex log...

Iteration    Objective       Primal Inf.    Dual Inf.      Time
   12890    1.0000000e+00   9.129229e-03   0.000000e+00    105s
   13146    9.9999999e-01   1.377453e-01   0.000000e+00    111s
   13386    9.9999998e-01   8.692994e-02   0.000000e+00    117s
   13626    9.9999997e-01   3.510972e-02   0.000000e+00    123s
   13746    9.9999997e-01   3.809759e-02   0.000000e+00    125s
   13986    9.9999996e-01   3.704359e-02   0.000000e+00    131s
   14226    9.9999995e-01   8.284336e-02   0.000000e+00    136s
   14466    9.9999994e-01   2.668329e-01   0.000000e+00    141s
   14706    9.9999993e-01   6.507745e-02   0.000000e+00    146s
   14946    9.9999991e-01   2.735154e-01   0.000000e+00    152s
   15194    9.9999990e-01   3.445022e-02   0.000000e+00    157s
   15434    9.9999987e-01   4.750862e-02   0.000000e+00    162s
   15674    9.9999986e-01   3.924604e-01   0.000000e+00    167s
   15938    9.9999984e-01   2.745657e-02   0.000000e+00    172s
   16178    9.9999982e-01   3.337395e-02   0.000000e+00    177s
   16418    9.9999981e-01   9.959323e-02   0.000000e+00    182s
   16658    9.9999980e-01   1.080355e-02   0.000000e+00    187s
   16906    9.9999979e-01   1.105238e-01   0.000000e+00    192s
   17154    9.9999978e-01   5.448144e-02   0.000000e+00    197s
   17402    9.9999977e-01   8.263055e-02   0.000000e+00    202s
   17658    9.9999976e-01   2.156302e-02   0.000000e+00    207s
   17906    9.9999975e-01   7.366021e-03   0.000000e+00    212s
   18154    9.9999974e-01   3.220884e-02   0.000000e+00    217s
   18394    9.9999974e-01   1.956434e-02   0.000000e+00    222s
   18634    9.9999973e-01   1.279984e-02   0.000000e+00    227s
   18882    9.9999972e-01   9.154472e-02   0.000000e+00    232s
   19138    9.9999972e-01   2.082732e-02   0.000000e+00    237s
   19378    9.9999971e-01   3.100900e-03   0.000000e+00    242s
   19618    9.9999971e-01   8.175472e-03   0.000000e+00    247s
   19858    9.9999971e-01   2.613485e-03   0.000000e+00    252s
   20106    9.9999970e-01   4.434165e-03   0.000000e+00    257s
   20362    9.9999970e-01   1.316012e-03   0.000000e+00    262s
   20602    9.9999970e-01   6.804883e-03   0.000000e+00    267s
   20858    9.9999970e-01   3.904213e-03   0.000000e+00    272s
   21098    9.9999970e-01   2.502618e-04   0.000000e+00    277s
   21218    9.9999970e-01   7.514703e-05   0.000000e+00    280s
   21452    9.9999992e-01   0.000000e+00   1.569829e+03    287s
   21552    9.9999992e-01   0.000000e+00   5.107330e+01    291s
   21782    9.9999993e-01   0.000000e+00   2.522667e+01    298s
   21882    9.9999994e-01   0.000000e+00   1.096862e+01    301s
   22122    9.9999995e-01   0.000000e+00   2.418468e+01    309s
   22222    9.9999995e-01   0.000000e+00   8.198439e+01    312s
   22332    9.9999996e-01   0.000000e+00   4.637293e+01    315s
   22562    9.9999997e-01   0.000000e+00   2.228116e+01    323s
   22672    9.9999998e-01   0.000000e+00   3.070914e+01    327s
   22772    9.9999998e-01   0.000000e+00   7.743913e+01    330s
   22992    9.9999999e-01   0.000000e+00   4.114900e+00    338s
   23112    9.9999999e-01   0.000000e+00   1.928522e+01    342s
   23242    1.0000000e+00   0.000000e+00   4.803464e+01    347s
   23352    1.0000000e+00   0.000000e+00   1.019885e+01    351s
   23552    1.0000000e+00   0.000000e+00   2.946371e+00    358s
   23672    1.0000000e+00   0.000000e+00   3.579957e+00    362s
   23782    1.0000000e+00   0.000000e+00   1.856849e+00    366s
   23992    1.0000000e+00   0.000000e+00   5.244043e-01    374s
   24092    1.0000000e+00   0.000000e+00   6.501292e-01    377s
   24192    1.0000000e+00   0.000000e+00   5.918175e-01    381s
   24312    1.0000000e+00   0.000000e+00   6.284858e-01    386s
   24532    1.0000000e+00   0.000000e+00   5.452543e-01    393s
   24662    1.0000000e+00   0.000000e+00   1.408424e-01    397s
   24762    1.0000000e+00   0.000000e+00   1.239754e-01    401s
   24872    1.0000000e+00   0.000000e+00   7.108061e-02    405s
   25092    1.0000000e+00   0.000000e+00   3.545482e-01    413s
   25202    1.0000000e+00   0.000000e+00   3.583093e-01    416s
   25312    1.0000000e+00   0.000000e+00   2.336882e-01    420s
   25522    1.0000000e+00   0.000000e+00   4.641680e-01    427s
   25632    1.0000000e+00   0.000000e+00   2.716546e-01    431s
   25842    1.0000000e+00   0.000000e+00   1.113351e-03    438s
   25963    1.0000000e+00   4.382894e-04   0.000000e+00    442s
   26205    1.0000000e+00   3.139476e-03   0.000000e+00    448s
   26325    1.0000000e+00   4.914284e-04   0.000000e+00    450s
   26565    1.0000000e+00   2.296223e-03   0.000000e+00    457s
   26805    1.0000000e+00   1.495018e-03   0.000000e+00    462s
   27045    1.0000000e+00   2.321798e-04   0.000000e+00    468s
   27165    1.0000000e+00   2.894965e-04   0.000000e+00    471s
   27405    1.0000000e+00   6.233985e-04   0.000000e+00    476s
   27645    1.0000000e+00   2.793898e-04   0.000000e+00    482s
   27885    1.0000000e+00   1.420064e-04   0.000000e+00    487s
   28014    1.0000000e+00   0.000000e+00   2.308923e-01    491s
   28215    1.0000000e+00   0.000000e+00   3.037780e+03    499s
   28325    1.0000000e+00   0.000000e+00   2.472212e+00    502s
   28435    1.0000000e+00   0.000000e+00   1.228474e+00    506s
   28685    1.0000000e+00   0.000000e+00   8.659207e-01    515s
   28785    1.0000000e+00   0.000000e+00   3.267174e-01    520s
   28995    1.0000000e+00   0.000000e+00   2.866679e-02    529s
   29115    1.0000000e+00   0.000000e+00   1.310555e-02    533s
   29215    1.0000000e+00   0.000000e+00   1.015387e-03    537s
   29328    1.0000000e+00   1.153091e-03   0.000000e+00    540s
   29569    1.0000000e+00   6.120303e-04   0.000000e+00    548s
   29689    1.0000000e+00   3.872883e-04   0.000000e+00    551s
   29929    1.0000000e+00   3.763964e-04   0.000000e+00    558s
   30049    1.0000000e+00   4.597714e-05   0.000000e+00    561s
   30289    1.0000000e+00   4.292582e-04   0.000000e+00    567s
   30530    1.0000000e+00   0.000000e+00   1.615992e+02    574s
   30652    1.0000000e+00   0.000000e+00   9.926132e+01    578s
   30752    1.0000000e+00   0.000000e+00   7.590462e+00    582s
   30852    1.0000000e+00   0.000000e+00   1.347345e+00    585s
   31062    1.0000000e+00   0.000000e+00   7.059738e-01    593s
   31182    1.0000000e+00   0.000000e+00   5.998810e-01    598s
   31292    1.0000000e+00   0.000000e+00   3.299756e-01    602s
   31412    1.0000000e+00   0.000000e+00   4.137207e-01    606s
   31622    1.0000000e+00   0.000000e+00   2.333931e-01    613s
   31722    1.0000000e+00   0.000000e+00   4.544403e-02    617s
   31832    1.0000000e+00   0.000000e+00   1.126373e-01    621s
   32072    1.0000000e+00   0.000000e+00   1.493444e-02    630s
   32204    1.0000000e+00   3.103611e-04   0.000000e+00    633s
   32314    1.0000000e+00   1.036720e-03   0.000000e+00    636s
   32534    1.0000000e+00   1.463303e-03   0.000000e+00    642s
   32644    1.0000000e+00   3.045343e-04   0.000000e+00    645s
   32864    1.0000000e+00   8.978609e-05   0.000000e+00    651s
   33072    1.0000000e+00   0.000000e+00   3.780287e-02    657s
   33192    1.0000000e+00   0.000000e+00   1.823890e-02    662s
   33334    1.0000000e+00   1.398998e-03   0.000000e+00    667s
   33554    1.0000000e+00   1.661823e-03   0.000000e+00    672s
   33774    1.0000000e+00   1.384989e-03   0.000000e+00    678s
   33884    1.0000000e+00   4.522476e-04   0.000000e+00    680s
   34104    1.0000000e+00   3.889399e-04   0.000000e+00    686s
   34324    1.0000000e+00   1.146625e-04   0.000000e+00    692s
   34561    1.0000000e+00   0.000000e+00   1.909909e+03    700s
   34663    1.0000000e+00   0.000000e+00   2.830410e+04    704s
   34788    1.0000000e+00   0.000000e+00   2.517614e+02    710s
   34908    1.0000000e+00   0.000000e+00   1.181200e+01    713s
   35028    1.0000000e+00   0.000000e+00   4.612106e+00    717s
   35148    1.0000000e+00   0.000000e+00   1.049816e+01    721s
   35268    1.0000000e+00   0.000000e+00   9.276750e-01    725s
   35488    1.0000000e+00   0.000000e+00   4.310890e-01    732s
   35598    1.0000000e+00   0.000000e+00   4.285479e-01    736s
   35828    1.0000000e+00   0.000000e+00   2.286670e-02    743s
   35938    1.0000000e+00   0.000000e+00   1.382814e-02    747s
   36058    1.0000000e+00   0.000000e+00   1.164741e-02    751s
   36298    1.0000000e+00   0.000000e+00   2.935927e-02    758s
   36408    1.0000000e+00   0.000000e+00   4.978944e-02    762s
   36528    1.0000000e+00   0.000000e+00   1.692390e-02    766s
   36748    1.0000000e+00   0.000000e+00   4.067719e-03    773s
   36858    1.0000000e+00   0.000000e+00   6.605121e-03    776s
   36978    1.0000000e+00   0.000000e+00   2.608027e-02    780s
   37208    1.0000000e+00   0.000000e+00   2.631754e-02    788s
   37318    1.0000000e+00   0.000000e+00   4.945752e-03    791s
   37538    1.0000000e+00   0.000000e+00   3.102432e-03    798s
   37658    1.0000000e+00   0.000000e+00   1.832351e-03    802s
   37768    1.0000000e+00   0.000000e+00   1.550633e-03    806s
   37998    1.0000000e+00   0.000000e+00   8.135428e-04    813s
   38118    1.0000000e+00   0.000000e+00   8.633819e-02    817s
   38218    1.0000000e+00   0.000000e+00   1.495593e-02    820s
   38458    1.0000000e+00   0.000000e+00   1.055302e-03    828s
   38594    1.0000000e+00   7.366453e-04   0.000000e+00    832s
   38814    1.0000000e+00   6.968495e-04   0.000000e+00    837s
   39034    1.0000000e+00   9.583536e-04   0.000000e+00    843s
   39144    1.0000000e+00   3.414362e-04   0.000000e+00    845s
   39364    1.0000000e+00   8.919556e-04   0.000000e+00    851s
   39584    1.0000000e+00   1.340788e-03   0.000000e+00    856s
   39804    1.0000000e+00   4.555409e-04   0.000000e+00    862s
   40046    1.0000000e+00   0.000000e+00   2.988062e-01    869s
   40146    1.0000000e+00   0.000000e+00   6.022034e+02    872s
   40256    1.0000000e+00   0.000000e+00   4.233511e+00    876s
   40486    1.0000000e+00   0.000000e+00   2.201010e+00    884s
   40606    1.0000000e+00   0.000000e+00   3.556856e+00    888s
   40716    1.0000000e+00   0.000000e+00   3.062144e-01    892s
   40836    1.0000000e+00   0.000000e+00   2.429173e-01    896s
   40956    1.0000000e+00   0.000000e+00   4.398358e-01    900s
   41176    1.0000000e+00   0.000000e+00   1.967977e-02    908s
   41276    1.0000000e+00   0.000000e+00   3.502359e-03    911s
   41411    1.0000000e+00   6.042033e-05   0.000000e+00    916s
   41631    1.0000000e+00   1.310067e-03   0.000000e+00    921s
   41851    1.0000000e+00   1.763865e-03   0.000000e+00    927s
   42071    1.0000000e+00   5.270516e-04   0.000000e+00    932s
   42291    1.0000000e+00   1.104757e-03   0.000000e+00    937s
   42401    1.0000000e+00   3.640686e-04   0.000000e+00    940s
   42621    1.0000000e+00   4.120552e-04   0.000000e+00    945s
   42841    1.0000000e+00   2.153660e-04   0.000000e+00    951s
   43083    1.0000000e+00   0.000000e+00   5.686234e-02    959s
   43203    1.0000000e+00   0.000000e+00   3.741132e-01    963s
   43313    1.0000000e+00   0.000000e+00   2.522278e-02    967s
   43433    1.0000000e+00   0.000000e+00   2.479306e-02    972s
   43553    1.0000000e+00   0.000000e+00   4.017625e-03    976s
   43701    1.0000000e+00   4.821039e-03   0.000000e+00    980s
   43921    1.0000000e+00   2.554450e-03   0.000000e+00    986s
   44141    1.0000000e+00   2.648480e-03   0.000000e+00    993s
   44251    1.0000000e+00   2.598993e-03   0.000000e+00    996s
   44471    1.0000000e+00   5.838081e-03   0.000000e+00   1002s
   44581    1.0000000e+00   1.177330e-03   0.000000e+00   1005s
   44801    1.0000000e+00   6.336514e-04   0.000000e+00   1010s
   45021    1.0000000e+00   3.344413e-03   0.000000e+00   1016s
   45241    1.0000000e+00   3.457522e-03   0.000000e+00   1021s
   45461    1.0000000e+00   8.102910e-04   0.000000e+00   1026s
   45681    1.0000000e+00   7.859222e-05   0.000000e+00   1032s
   45791    1.0000000e+00   0.000000e+00   1.187510e-01   1036s
   45911    1.0000000e+00   0.000000e+00   5.825132e-02   1040s
   46131    1.0000000e+00   0.000000e+00   1.551192e-02   1048s
   46231    1.0000000e+00   0.000000e+00   1.362055e-02   1052s
   46351    1.0000000e+00   0.000000e+00   1.408244e-02   1057s
   46470    1.0000000e+00   8.887950e-04   0.000000e+00   1060s
   46690    1.0000000e+00   5.107819e-03   0.000000e+00   1066s
   46910    1.0000000e+00   6.554846e-03   0.000000e+00   1071s
   47130    1.0000000e+00   2.013898e-02   0.000000e+00   1076s
   47350    1.0000000e+00   4.439589e-03   0.000000e+00   1081s
   47570    9.9999999e-01   2.620685e-02   0.000000e+00   1086s
   47790    9.9999999e-01   8.167219e-03   0.000000e+00   1091s
   48010    9.9999999e-01   2.022672e-02   0.000000e+00   1096s
   48230    9.9999999e-01   8.414944e-03   0.000000e+00   1102s
   48450    9.9999999e-01   3.673059e-03   0.000000e+00   1107s
   48670    9.9999999e-01   4.198081e-03   0.000000e+00   1112s
   48890    9.9999999e-01   3.684169e-03   0.000000e+00   1117s
   49110    9.9999998e-01   1.030748e-02   0.000000e+00   1122s
   49330    9.9999998e-01   5.024752e-03   0.000000e+00   1127s
   49550    9.9999998e-01   3.481219e-03   0.000000e+00   1132s
   49770    9.9999998e-01   5.539504e-03   0.000000e+00   1137s
   49990    9.9999998e-01   1.037853e-03   0.000000e+00   1142s
   50210    9.9999998e-01   1.113589e-03   0.000000e+00   1147s
   50430    9.9999998e-01   1.686696e-03   0.000000e+00   1152s
   50650    9.9999998e-01   1.192524e-04   0.000000e+00   1157s
   50870    9.9999998e-01   4.860990e-04   0.000000e+00   1162s
   50999    1.0000000e+00   0.000000e+00   8.150132e-01   1166s
   51239    1.0000000e+00   0.000000e+00   1.722192e-01   1174s
   51359    1.0000000e+00   0.000000e+00   4.566856e-02   1178s
   51459    1.0000000e+00   0.000000e+00   3.841003e-02   1182s
   51579    1.0000000e+00   0.000000e+00   1.735831e-02   1186s
   51708    1.0000000e+00   7.004313e-04   0.000000e+00   1191s
   51928    1.0000000e+00   1.135071e-03   0.000000e+00   1196s
   52148    1.0000000e+00   1.715811e-03   0.000000e+00   1201s
   52368    1.0000000e+00   4.613466e-03   0.000000e+00   1206s
   52588    1.0000000e+00   9.484979e-04   0.000000e+00   1211s
   52808    1.0000000e+00   5.932357e-04   0.000000e+00   1216s
   53028    1.0000000e+00   1.763979e-03   0.000000e+00   1221s
   53248    1.0000000e+00   6.270401e-04   0.000000e+00   1226s
   53468    1.0000000e+00   5.749384e-03   0.000000e+00   1231s
   53688    1.0000000e+00   1.744557e-03   0.000000e+00   1236s
   53908    1.0000000e+00   5.539636e-04   0.000000e+00   1241s
   54128    1.0000000e+00   2.691916e-05   0.000000e+00   1247s

Root relaxation: objective 1.000000e+00, 66768 iterations, 1265.42 seconds (1783.07 work units)

    Nodes    |    Current Node    |     Objective Bounds      |     Work
 Expl Unexpl |  Obj  Depth IntInf | Incumbent    BestBd   Gap | It/Node Time

     0     0    1.00000    0 3524    0.73600    1.00000  35.9%     - 1800s

Explored 1 nodes (83895 simplex iterations) in 1800.08 seconds (2618.11 work units)
Thread count was 4 (of 4 available processors)

Solution count 2: 0.736 0.5515 

Time limit reached
Best objective 7.360000000000e-01, best bound 1.000000000000e+00, gap 35.8696%
